proyfinal/src/viki/013/experimentInOfficeAgust.take6.output/e52df7be-1142-4b36-bba8-ba2e6e1e257e.als.dat
{'cnf.clauses': '118081',
 'cnf.totvars': '69608',
 'conflict literals': '7',
 'conflicts': '6',
 'decisions': '655',
 'memused.mb': '15.58',
 'outcome': 'UNSAT',
 'propagations': '21434',
 'restarts': '1',
 'solver.msecs': 30,
 'task.msecs': 81}
