proyfinal/src/viki/013/experimentInOfficeAgust.take6.output/e52df7be-1142-4b36-bba8-ba2e6e1e257e.als.out
Reading from standard input... Use '--help' for help.
============================[ Problem Statistics ]=============================
|                                                                             |
|  Number of variables:         69608                                         |
|  Number of clauses:          118081                                         |
|  Parse time:                   0.02 s                                       |
|                                                                             |
============================[ Search Statistics ]==============================
| Conflicts |          ORIGINAL         |          LEARNT          | Progress |
|           |    Vars  Clauses Literals |    Limit  Clauses Lit/Cl |          |
===============================================================================
===============================================================================
restarts              : 1
conflicts             : 6              (194 /sec)
decisions             : 655            (0.00 % random) (21137 /sec)
propagations          : 21434          (691687 /sec)
conflict literals     : 7              (0.00 % deleted)
Memory used           : 15.58 MB
CPU time              : 0.030988 s

UNSATISFIABLE
